n_machines = 10;
n_resources = 17;
n_jobs = 85;
horizon = 42206;
LB = 4220;
n_jobs_per_resource = [5, 5, 5, 5, 5, 5, 5, 5, 5, 5, 5, 5, 5, 5, 5, 5, 5];
duration = [605, 828, 16, 185, 869, 476, 121, 987, 717, 553, 724, 563, 786, 372, 838, 492, 660, 454, 868, 996, 126, 429, 938, 231, 956, 248, 956, 334, 185, 215, 775, 580, 746, 461, 461, 825, 963, 362, 388, 88, 275, 305, 666, 635, 150, 104, 88, 278, 231, 718, 559, 185, 256, 535, 451, 143, 392, 762, 506, 651, 167, 27, 785, 482, 145, 701, 108, 99, 172, 927, 568, 19, 968, 727, 71, 526, 563, 149, 998, 983, 630, 622, 6, 665, 831]